Traveling Salesman Problem/TSP_generados/Aleatorio1621103373_12.tsp
NAME: Aleatorio1621103373_12.tsp
COMMENT: Randomly generated scenario
TYPE: TSP
DIMENSION: 12
EDGE_WEIGHT_TYPE: ATT
NODE_COORD_SECTION
1 25.24 29.22
2 43.55 0.15
3 5.36 12.63
4 4.39 37.76
5 46.4 30.71
6 47.06 18.78
7 38.28 42.66
8 33.65 22.41
9 47.48 49.29
10 7.04 15.8
11 23.86 22.52
12 2.02 17.58
