Traveling Salesman Problem/TSP_generados/Aleatorio1621103373_12.opt.tour
NAME: Aleatorio1621103373_12.opt.tour
COMMENT: Optimal solution for Aleatorio1621103373_12 (184.2582877247302)
TYPE: TOUR
DIMENSION: 12
TOUR_SECTION
1 7 9 5 6 2 8 11 10 3 12 4
-1
EOF
